(set-logic QF_S)
(declare-fun T_SELECT_19 () Bool)
(declare-fun T_db () Bool)
(declare-fun T_dc () Bool)
(declare-fun I0_325 () Int)
(declare-fun I0_329 () Int)
(declare-fun I1_325 () Int)
(declare-fun I1_329 () Int)
(declare-fun I2_325 () Int)
(declare-fun I2_329 () Int)
(declare-fun PCTEMP_LHS_85 () Int)
(declare-fun T_e0 () Int)
(declare-fun T0_320 () String)
(declare-fun T1_320 () String)
(declare-fun T_d9 () String)
(assert (= T_d9 (str.++ T0_320 T1_320)))
(assert (not (str.in.re T1_320 (str.to.re "="))))
(assert T_dc)
(assert (= T_dc (not T_db)))
(assert (= T_db (= PCTEMP_LHS_85 (- 1))))
(assert (= I0_325 (- PCTEMP_LHS_85 0)))
(assert (>= PCTEMP_LHS_85 0))
(assert (= I2_325 I1_325))
(assert (<= PCTEMP_LHS_85 I1_325))
(assert (>= I2_329 T_e0))
(assert (= I2_329 I1_329))
(assert (<= I2_329 I1_329))
(assert (= I0_329 (- I2_329 T_e0)))
(assert (>= T_e0 0))
(assert (= T_e0 (+ PCTEMP_LHS_85 1)))
(assert (= PCTEMP_LHS_85 (- 1)))
(assert (= T_SELECT_19 (not (= PCTEMP_LHS_85 (- 1)))))
(assert (= 0 (str.len T0_320))) ; len 0
(assert (not T_SELECT_19))
(check-sat)
